14303
1 0 1 0 0 1 1 0 0 0 0 1 0 0 1 1 0 1 0 0 1 0 0 0 1 0 0 0 0 0 
6 17 6 2 6 5 2 24 6 0 5 6 6 20 2 20 14 17 5 11 2 17 5 2 5 20 2 24 5 5 5 11 6 24 20 20 24 15 2 14 17 14 15 2 24 14 2 20 11 20 5 2 14 5 6 20 14 5 17 14 0 24 20 17 11 11 5 0 5 5 6 6 11 17 15 20 5 20 2 5 20 17 6 0 2 17 17 17 20 5 2 15 17 11 17 5 2 2 5 6 6 17 14 11 2 11 17 11 14 20 14 2 2 11 11 5 24 15 24 24 11 6 24 20 6 17 5 15 17 6 0 17 24 6 6 14 17 24 20 17 0 20 20 14 20 24 11 11 17 24 